1840553576836244003502,10,1,2,09,2,1,2,014,5,1,2,015,14,1,2,02,8,1,2,010,4,1,2,010,13,1,2,02,10,1,2,012,14,1,2,09,12,1,2,06,3,1,2,05,3,1,2,05,3,1,2,014,4,1,2,014,11,1,2,013,13,1,2,08,14,1,2,08,9,1,2,013,10,1,2,01,4,1,2,03,3,1,2,02,5,1,2,010,9,1,2,06,2,1,2,010,5,1,2,09,8,1,2,013,10,1,2,07,3,1,2,02,15,1,2,09,6,1,2,05,5,1,2,04,12,1,2,010,6,1,2,012,9,1,2,02,12,1,2,012,11,1,2,01,2,1,2,013,3,1,2,01,12,1,2,01,13,1,2,015,12,1,2,07,2,1,2,09,3,1,2,013,4,1,2,06,4,1,2,08,5,1,2,07,5,1,2,02,2,1,2,04,6,1,2,07,8,1,2,0